
Gurobi 7.0.2 (mac64, Python) logging started Fri Jul 28 11:46:28 2017


Gurobi 7.0.2 (mac64, Python) logging started Fri Jul 28 11:46:36 2017


Gurobi 7.0.2 (mac64, Python) logging started Fri Jul 28 11:46:40 2017


Gurobi 7.0.2 (mac64, Python) logging started Fri Jul 28 11:47:11 2017


Gurobi 7.0.2 (mac64, Python) logging started Fri Jul 28 11:47:41 2017


Gurobi 7.0.2 (mac64, Python) logging started Fri Jul 28 11:48:58 2017


Gurobi 7.0.2 (mac64, Python) logging started Fri Jul 28 11:49:07 2017


Gurobi 7.0.2 (mac64, Python) logging started Fri Jul 28 11:51:49 2017


Gurobi 7.0.2 (mac64, Python) logging started Fri Jul 28 11:51:53 2017


Gurobi 7.0.2 (mac64, Python) logging started Fri Jul 28 11:51:56 2017


Gurobi 7.0.2 (mac64, Python) logging started Fri Jul 28 11:52:16 2017


Gurobi 7.0.2 (mac64, Python) logging started Fri Jul 28 11:52:30 2017


Gurobi 7.0.2 (mac64, Python) logging started Fri Jul 28 11:52:43 2017


Gurobi 7.0.2 (mac64, Python) logging started Fri Jul 28 11:52:47 2017


Gurobi 7.0.2 (mac64, Python) logging started Fri Jul 28 11:52:50 2017


Gurobi 7.0.2 (mac64, Python) logging started Fri Jul 28 11:52:53 2017


Gurobi 7.0.2 (mac64, Python) logging started Fri Jul 28 11:52:56 2017


Gurobi 7.0.2 (mac64, Python) logging started Fri Jul 28 11:53:00 2017


Gurobi 7.0.2 (mac64, Python) logging started Fri Jul 28 11:53:03 2017


Gurobi 7.0.2 (mac64, Python) logging started Fri Jul 28 11:53:06 2017


Gurobi 7.0.2 (mac64, Python) logging started Fri Jul 28 11:53:08 2017


Gurobi 7.0.2 (mac64, Python) logging started Fri Jul 28 11:53:10 2017


Gurobi 7.0.2 (mac64, Python) logging started Fri Jul 28 11:53:12 2017


Gurobi 7.0.2 (mac64, Python) logging started Fri Jul 28 11:53:16 2017


Gurobi 7.0.2 (mac64, Python) logging started Fri Jul 28 11:53:18 2017


Gurobi 7.0.2 (mac64, Python) logging started Fri Jul 28 11:53:20 2017


Gurobi 7.0.2 (mac64, Python) logging started Fri Jul 28 11:53:24 2017


Gurobi 7.0.2 (mac64, Python) logging started Fri Jul 28 11:53:28 2017


Gurobi 7.0.2 (mac64, Python) logging started Fri Jul 28 11:53:33 2017


Gurobi 7.0.2 (mac64, Python) logging started Fri Jul 28 11:53:37 2017


Gurobi 7.0.2 (mac64, Python) logging started Fri Jul 28 11:53:39 2017


Gurobi 7.0.2 (mac64, Python) logging started Fri Jul 28 11:53:44 2017


Gurobi 7.0.2 (mac64, Python) logging started Fri Jul 28 12:21:02 2017


Gurobi 7.0.2 (mac64, Python) logging started Fri Jul 28 12:21:37 2017


Gurobi 7.0.2 (mac64, Python) logging started Fri Jul 28 12:22:03 2017


Gurobi 7.0.2 (mac64, Python) logging started Fri Jul 28 12:23:31 2017


Gurobi 7.0.2 (mac64, Python) logging started Fri Jul 28 12:24:41 2017


Gurobi 7.0.2 (mac64, Python) logging started Fri Jul 28 12:25:10 2017


Gurobi 7.0.2 (mac64, Python) logging started Fri Jul 28 12:25:18 2017


Gurobi 7.0.2 (mac64, Python) logging started Fri Jul 28 12:25:38 2017


Gurobi 7.0.2 (mac64, Python) logging started Fri Jul 28 12:25:50 2017


Gurobi 7.0.2 (mac64, Python) logging started Fri Jul 28 12:26:06 2017


Gurobi 7.0.2 (mac64, Python) logging started Fri Jul 28 12:26:35 2017


Gurobi 7.0.2 (mac64, Python) logging started Fri Jul 28 12:26:49 2017


Gurobi 7.0.2 (mac64, Python) logging started Fri Jul 28 12:26:59 2017


Gurobi 7.0.2 (mac64, Python) logging started Fri Jul 28 12:27:14 2017


Gurobi 7.0.2 (mac64, Python) logging started Fri Jul 28 12:27:47 2017


Gurobi 7.0.2 (mac64, Python) logging started Fri Jul 28 12:28:04 2017


Gurobi 7.0.2 (mac64, Python) logging started Fri Jul 28 12:28:55 2017


Gurobi 7.0.2 (mac64, Python) logging started Fri Jul 28 12:29:05 2017


Gurobi 7.0.2 (mac64, Python) logging started Fri Jul 28 12:29:17 2017


Gurobi 7.0.2 (mac64, Python) logging started Fri Jul 28 12:29:28 2017


Gurobi 7.0.2 (mac64, Python) logging started Fri Jul 28 12:29:35 2017


Gurobi 7.0.2 (mac64, Python) logging started Fri Jul 28 12:33:19 2017


Gurobi 7.0.2 (mac64, Python) logging started Fri Jul 28 12:33:22 2017


Gurobi 7.0.2 (mac64, Python) logging started Fri Jul 28 12:33:26 2017


Gurobi 7.0.2 (mac64, Python) logging started Fri Jul 28 12:33:42 2017


Gurobi 7.0.2 (mac64, Python) logging started Fri Jul 28 12:33:59 2017


Gurobi 7.0.2 (mac64, Python) logging started Fri Jul 28 12:34:47 2017


Gurobi 7.0.2 (mac64, Python) logging started Fri Jul 28 12:35:44 2017


Gurobi 7.0.2 (mac64, Python) logging started Fri Jul 28 12:35:52 2017


Gurobi 7.0.2 (mac64, Python) logging started Fri Jul 28 12:35:55 2017


Gurobi 7.0.2 (mac64, Python) logging started Fri Jul 28 12:35:58 2017


Gurobi 7.0.2 (mac64, Python) logging started Fri Jul 28 12:36:02 2017


Gurobi 7.0.2 (mac64, Python) logging started Fri Jul 28 12:36:05 2017


Gurobi 7.0.2 (mac64, Python) logging started Fri Jul 28 12:36:08 2017


Gurobi 7.0.2 (mac64, Python) logging started Fri Jul 28 12:36:11 2017


Gurobi 7.0.2 (mac64, Python) logging started Fri Jul 28 12:36:14 2017


Gurobi 7.0.2 (mac64, Python) logging started Fri Jul 28 12:41:07 2017


Gurobi 7.0.2 (mac64, Python) logging started Fri Jul 28 12:41:12 2017


Gurobi 7.0.2 (mac64, Python) logging started Fri Jul 28 12:41:17 2017


Gurobi 7.0.2 (mac64, Python) logging started Fri Jul 28 12:41:20 2017


Gurobi 7.0.2 (mac64, Python) logging started Fri Jul 28 12:41:24 2017


Gurobi 7.0.2 (mac64, Python) logging started Fri Jul 28 12:41:27 2017


Gurobi 7.0.2 (mac64, Python) logging started Fri Jul 28 12:41:30 2017


Gurobi 7.0.2 (mac64, Python) logging started Fri Jul 28 12:53:59 2017


Gurobi 7.0.2 (mac64, Python) logging started Fri Jul 28 12:54:11 2017


Gurobi 7.0.2 (mac64, Python) logging started Fri Jul 28 12:54:38 2017


Gurobi 7.0.2 (mac64, Python) logging started Fri Jul 28 12:54:41 2017


Gurobi 7.0.2 (mac64, Python) logging started Fri Jul 28 12:54:53 2017


Gurobi 7.0.2 (mac64, Python) logging started Fri Jul 28 13:19:38 2017


Gurobi 7.0.2 (mac64, Python) logging started Fri Jul 28 13:19:51 2017


Gurobi 7.0.2 (mac64, Python) logging started Fri Jul 28 13:20:25 2017


Gurobi 7.0.2 (mac64, Python) logging started Fri Jul 28 13:20:40 2017


Gurobi 7.0.2 (mac64, Python) logging started Fri Jul 28 13:20:57 2017


Gurobi 7.0.2 (mac64, Python) logging started Fri Jul 28 13:21:15 2017


Gurobi 7.0.2 (mac64, Python) logging started Fri Jul 28 13:22:12 2017


Gurobi 7.0.2 (mac64, Python) logging started Fri Jul 28 13:23:09 2017


Gurobi 7.0.2 (mac64, Python) logging started Fri Jul 28 13:23:20 2017


Gurobi 7.0.2 (mac64, Python) logging started Fri Jul 28 13:23:27 2017


Gurobi 7.0.2 (mac64, Python) logging started Fri Jul 28 13:23:30 2017


Gurobi 7.0.2 (mac64, Python) logging started Fri Jul 28 13:23:32 2017


Gurobi 7.0.2 (mac64, Python) logging started Fri Jul 28 13:23:35 2017


Gurobi 7.0.2 (mac64, Python) logging started Fri Jul 28 13:23:38 2017


Gurobi 7.0.2 (mac64, Python) logging started Fri Jul 28 15:17:42 2017


Gurobi 7.0.2 (mac64, Python) logging started Fri Jul 28 15:17:56 2017


Gurobi 7.0.2 (mac64, Python) logging started Fri Jul 28 15:18:37 2017


Gurobi 7.0.2 (mac64, Python) logging started Fri Jul 28 15:18:40 2017


Gurobi 7.0.2 (mac64, Python) logging started Fri Jul 28 15:18:47 2017


Gurobi 7.0.2 (mac64, Python) logging started Fri Jul 28 15:19:00 2017


Gurobi 7.0.2 (mac64, Python) logging started Fri Jul 28 15:51:50 2017


Gurobi 7.0.2 (mac64, Python) logging started Fri Jul 28 15:51:56 2017


Gurobi 7.0.2 (mac64, Python) logging started Fri Jul 28 15:53:35 2017


Gurobi 7.0.2 (mac64, Python) logging started Fri Jul 28 15:56:50 2017


Gurobi 7.0.2 (mac64, Python) logging started Fri Jul 28 15:56:57 2017


Gurobi 7.0.2 (mac64, Python) logging started Fri Jul 28 15:57:10 2017


Gurobi 7.0.2 (mac64, Python) logging started Fri Jul 28 15:57:24 2017


Gurobi 7.0.2 (mac64, Python) logging started Fri Jul 28 15:57:33 2017


Gurobi 7.0.2 (mac64, Python) logging started Fri Jul 28 15:57:39 2017


Gurobi 7.0.2 (mac64, Python) logging started Fri Jul 28 15:57:49 2017


Gurobi 7.0.2 (mac64, Python) logging started Fri Jul 28 15:57:55 2017


Gurobi 7.0.2 (mac64, Python) logging started Fri Jul 28 15:58:07 2017


Gurobi 7.0.2 (mac64, Python) logging started Fri Jul 28 15:58:16 2017


Gurobi 7.0.2 (mac64, Python) logging started Fri Jul 28 15:59:10 2017


Gurobi 7.0.2 (mac64, Python) logging started Fri Jul 28 15:59:34 2017


Gurobi 7.0.2 (mac64, Python) logging started Mon Aug  7 12:25:59 2017


Gurobi 7.0.2 (mac64, Python) logging started Mon Aug  7 12:33:57 2017


Gurobi 7.0.2 (mac64, Python) logging started Mon Aug  7 12:36:24 2017


Gurobi 7.0.2 (mac64, Python) logging started Mon Aug  7 12:41:20 2017


Gurobi 7.0.2 (mac64, Python) logging started Mon Aug  7 12:42:13 2017


Gurobi 7.0.2 (mac64, Python) logging started Mon Aug  7 12:42:50 2017


Gurobi 7.0.2 (mac64, Python) logging started Mon Aug  7 12:43:10 2017


Gurobi 7.0.2 (mac64, Python) logging started Mon Aug  7 12:43:38 2017


Gurobi 7.0.2 (mac64, Python) logging started Mon Aug  7 12:43:56 2017


Gurobi 7.0.2 (mac64, Python) logging started Mon Aug  7 12:45:51 2017


Gurobi 7.0.2 (mac64, Python) logging started Mon Aug  7 12:46:42 2017


Gurobi 7.0.2 (mac64, Python) logging started Mon Aug  7 12:47:08 2017


Gurobi 7.0.2 (mac64, Python) logging started Mon Aug  7 12:47:19 2017


Gurobi 7.0.2 (mac64, Python) logging started Mon Aug  7 12:51:54 2017


Gurobi 7.0.2 (mac64, Python) logging started Mon Aug  7 12:52:57 2017


Gurobi 7.0.2 (mac64, Python) logging started Mon Aug  7 14:22:47 2017


Gurobi 7.0.2 (mac64, Python) logging started Mon Aug  7 14:23:03 2017


Gurobi 7.0.2 (mac64, Python) logging started Mon Aug  7 14:23:37 2017


Gurobi 7.0.2 (mac64, Python) logging started Mon Aug  7 14:33:53 2017


Gurobi 7.0.2 (mac64, Python) logging started Mon Aug  7 14:34:41 2017


Gurobi 7.0.2 (mac64, Python) logging started Mon Aug  7 14:35:02 2017


Gurobi 7.0.2 (mac64, Python) logging started Mon Aug  7 14:35:18 2017


Gurobi 7.0.2 (mac64, Python) logging started Mon Aug  7 14:42:16 2017


Gurobi 7.0.2 (mac64, Python) logging started Mon Aug  7 14:42:28 2017


Gurobi 7.0.2 (mac64, Python) logging started Mon Aug  7 14:42:41 2017


Gurobi 7.0.2 (mac64, Python) logging started Mon Aug  7 14:42:48 2017


Gurobi 7.0.2 (mac64, Python) logging started Mon Aug  7 14:42:54 2017


Gurobi 7.0.2 (mac64, Python) logging started Mon Aug  7 14:42:57 2017


Gurobi 7.0.2 (mac64, Python) logging started Mon Aug  7 14:45:01 2017


Gurobi 7.0.2 (mac64, Python) logging started Mon Aug  7 14:47:32 2017


Gurobi 7.0.2 (mac64, Python) logging started Mon Aug  7 14:47:57 2017


Gurobi 7.0.2 (mac64, Python) logging started Mon Aug  7 14:48:16 2017


Gurobi 7.0.2 (mac64, Python) logging started Mon Aug  7 14:48:27 2017


Gurobi 7.0.2 (mac64, Python) logging started Mon Aug  7 14:48:38 2017


Gurobi 7.0.2 (mac64, Python) logging started Mon Aug  7 14:48:52 2017


Gurobi 7.0.2 (mac64, Python) logging started Fri Aug 11 18:06:04 2017


Gurobi 7.0.2 (mac64, Python) logging started Fri Aug 11 18:06:38 2017


Gurobi 7.0.2 (mac64, Python) logging started Sat Aug 12 09:10:52 2017


Gurobi 7.0.2 (mac64, Python) logging started Sat Aug 12 09:35:49 2017


Gurobi 7.0.2 (mac64, Python) logging started Sat Aug 12 10:21:25 2017


Gurobi 7.0.2 (mac64, Python) logging started Fri Aug 18 16:01:43 2017


Gurobi 7.0.2 (mac64, Python) logging started Fri Aug 18 16:01:47 2017


Gurobi 7.0.2 (mac64, Python) logging started Fri Aug 18 16:01:49 2017


Gurobi 7.0.2 (mac64, Python) logging started Fri Aug 18 16:04:08 2017


Gurobi 7.0.2 (mac64, Python) logging started Fri Aug 18 16:05:36 2017


Gurobi 7.0.2 (mac64, Python) logging started Fri Aug 18 16:07:28 2017


Gurobi 7.0.2 (mac64, Python) logging started Fri Aug 18 16:08:52 2017


Gurobi 7.0.2 (mac64, Python) logging started Fri Aug 18 16:09:13 2017


Gurobi 7.0.2 (mac64, Python) logging started Fri Aug 18 16:10:06 2017


Gurobi 7.0.2 (mac64, Python) logging started Fri Aug 18 16:10:10 2017


Gurobi 7.0.2 (mac64, Python) logging started Fri Aug 18 16:10:25 2017


Gurobi 7.0.2 (mac64, Python) logging started Fri Aug 18 16:11:50 2017


Gurobi 7.0.2 (mac64, Python) logging started Fri Aug 18 16:12:01 2017


Gurobi 7.0.2 (mac64, Python) logging started Fri Aug 18 16:12:28 2017


Gurobi 7.0.2 (mac64, Python) logging started Fri Aug 18 16:13:21 2017


Gurobi 7.0.2 (mac64, Python) logging started Fri Aug 18 18:41:19 2017


Gurobi 7.0.2 (mac64, Python) logging started Fri Aug 18 18:41:32 2017


Gurobi 7.0.2 (mac64, Python) logging started Fri Aug 18 18:43:02 2017


Gurobi 7.0.2 (mac64, Python) logging started Fri Aug 18 18:43:20 2017


Gurobi 7.0.2 (mac64, Python) logging started Fri Aug 18 18:45:20 2017


Gurobi 7.0.2 (mac64, Python) logging started Fri Aug 18 18:45:38 2017


Gurobi 7.0.2 (mac64, Python) logging started Sat Aug 19 20:19:25 2017


Gurobi 7.0.2 (mac64, Python) logging started Sun Aug 20 10:02:55 2017


Gurobi 7.0.2 (mac64, Python) logging started Sun Aug 20 10:03:03 2017


Gurobi 7.0.2 (mac64, Python) logging started Sun Aug 20 10:03:05 2017


Gurobi 7.0.2 (mac64, Python) logging started Sun Aug 20 10:03:21 2017


Gurobi 7.0.2 (mac64, Python) logging started Sun Aug 20 10:04:42 2017


Gurobi 7.0.2 (mac64, Python) logging started Sun Aug 20 10:04:56 2017


Gurobi 7.0.2 (mac64, Python) logging started Sun Aug 20 10:07:25 2017


Gurobi 7.0.2 (mac64, Python) logging started Sun Aug 20 10:07:52 2017


Gurobi 7.0.2 (mac64, Python) logging started Sun Aug 20 10:08:08 2017


Gurobi 7.0.2 (mac64, Python) logging started Sun Aug 20 10:09:19 2017


Gurobi 7.0.2 (mac64, Python) logging started Sun Aug 20 10:10:06 2017


Gurobi 7.0.2 (mac64, Python) logging started Sun Aug 20 10:23:13 2017


Gurobi 7.0.2 (mac64, Python) logging started Sun Aug 20 10:23:40 2017


Gurobi 7.0.2 (mac64, Python) logging started Sun Aug 20 10:29:46 2017


Gurobi 7.0.2 (mac64, Python) logging started Sun Aug 20 10:34:19 2017


Gurobi 7.0.2 (mac64, Python) logging started Sun Aug 20 10:34:46 2017


Gurobi 7.0.2 (mac64, Python) logging started Sun Aug 20 10:36:05 2017


Gurobi 7.0.2 (mac64, Python) logging started Sun Aug 20 10:37:46 2017


Gurobi 7.0.2 (mac64, Python) logging started Sun Aug 20 10:46:18 2017


Gurobi 7.0.2 (mac64, Python) logging started Sun Aug 20 10:47:03 2017


Gurobi 7.0.2 (mac64, Python) logging started Sun Aug 20 10:47:48 2017


Gurobi 7.0.2 (mac64, Python) logging started Sun Aug 20 10:50:03 2017


Gurobi 7.0.2 (mac64, Python) logging started Sun Aug 20 10:52:14 2017


Gurobi 7.0.2 (mac64, Python) logging started Sun Aug 20 10:56:23 2017


Gurobi 7.0.2 (mac64, Python) logging started Sun Aug 20 16:01:24 2017

